data/OOEBPP/R1000/BPP_1000_50_0.2_0.7_0.txt.ins
1000
50 50
1 35 436
2 35 531
3 35 659
4 35 356
5 35 499
6 35 117
7 35 1
8 35 712
9 35 433
10 35 381
11 35 768
12 35 120
13 35 399
14 35 37
15 35 998
16 35 878
17 35 906
18 35 874
19 35 753
20 35 187
21 35 848
22 35 343
23 35 432
24 35 801
25 35 703
26 35 550
27 35 183
28 35 754
29 35 974
30 35 135
31 35 17
32 35 199
33 35 691
34 35 962
35 35 716
36 35 653
37 35 925
38 35 857
39 35 184
40 35 590
41 35 498
42 35 883
43 35 112
44 35 804
45 34 148
46 34 250
47 34 491
48 34 586
49 34 258
50 34 102
51 34 888
52 34 131
53 34 270
54 34 959
55 34 792
56 34 895
57 34 860
58 34 454
59 34 807
60 34 153
61 34 70
62 34 186
63 34 517
64 34 342
65 34 69
66 34 914
67 34 87
68 34 414
69 34 552
70 34 984
71 34 801
72 34 101
73 34 311
74 34 326
75 34 557
76 33 713
77 33 237
78 33 388
79 33 559
80 33 643
81 33 532
82 33 143
83 33 762
84 33 789
85 33 127
86 33 80
87 33 864
88 33 106
89 33 487
90 33 82
91 33 8
92 33 346
93 33 536
94 33 888
95 33 900
96 33 713
97 33 610
98 33 389
99 33 912
100 33 261
101 33 490
102 33 937
103 33 822
104 33 356
105 33 301
106 33 734
107 33 623
108 33 502
109 33 209
110 33 856
111 33 262
112 33 47
113 33 589
114 33 273
115 33 166
116 33 393
117 33 300
118 33 770
119 33 606
120 33 769
121 33 521
122 32 685
123 32 539
124 32 733
125 32 382
126 32 386
127 32 293
128 32 248
129 32 412
130 32 413
131 32 114
132 32 284
133 32 22
134 32 116
135 32 762
136 32 876
137 32 543
138 32 759
139 32 670
140 32 777
141 32 740
142 32 801
143 32 658
144 32 935
145 32 967
146 32 593
147 32 87
148 32 717
149 32 614
150 32 771
151 32 140
152 32 715
153 32 182
154 32 528
155 32 825
156 31 786
157 31 146
158 31 618
159 31 457
160 31 501
161 31 388
162 31 639
163 31 373
164 31 490
165 31 750
166 31 776
167 31 341
168 31 155
169 31 109
170 31 395
171 31 750
172 31 852
173 31 79
174 31 36
175 31 801
176 31 14
177 31 932
178 31 944
179 31 697
180 31 362
181 31 811
182 31 901
183 31 690
184 31 124
185 31 868
186 31 547
187 31 639
188 31 181
189 31 431
190 31 471
191 31 380
192 31 556
193 31 642
194 31 730
195 31 145
196 31 602
197 31 955
198 31 631
199 31 193
200 31 885
201 31 231
202 31 737
203 31 301
204 31 888
205 31 723
206 30 433
207 30 696
208 30 116
209 30 656
210 30 948
211 30 293
212 30 965
213 30 584
214 30 267
215 30 6
216 30 445
217 30 245
218 30 508
219 30 990
220 30 939
221 30 54
222 30 479
223 30 853
224 30 802
225 30 15
226 30 892
227 30 984
228 30 906
229 30 422
230 30 763
231 30 84
232 30 120
233 30 994
234 30 875
235 30 998
236 30 776
237 30 593
238 30 781
239 30 602
240 30 130
241 30 932
242 30 993
243 30 362
244 30 317
245 30 172
246 30 271
247 30 119
248 30 19
249 30 110
250 30 135
251 30 595
252 30 111
253 30 261
254 30 816
255 30 447
256 30 674
257 30 227
258 30 391
259 29 539
260 29 363
261 29 754
262 29 982
263 29 669
264 29 10
265 29 669
266 29 864
267 29 85
268 29 711
269 29 336
270 29 877
271 29 94
272 29 229
273 29 428
274 29 683
275 29 37
276 29 89
277 29 391
278 29 137
279 29 516
280 29 125
281 29 132
282 29 295
283 29 111
284 29 600
285 29 230
286 29 542
287 29 326
288 29 418
289 29 625
290 29 476
291 28 590
292 28 654
293 28 823
294 28 520
295 28 186
296 28 689
297 28 25
298 28 494
299 28 291
300 28 379
301 28 495
302 28 728
303 28 281
304 28 734
305 28 767
306 28 328
307 28 973
308 28 871
309 28 250
310 28 102
311 28 297
312 28 356
313 28 20
314 28 658
315 28 532
316 28 751
317 28 263
318 28 707
319 28 766
320 28 502
321 28 81
322 28 907
323 28 49
324 28 532
325 27 824
326 27 998
327 27 520
328 27 362
329 27 538
330 27 280
331 27 610
332 27 701
333 27 532
334 27 952
335 27 5
336 27 530
337 27 661
338 27 936
339 27 74
340 27 468
341 27 946
342 27 995
343 27 585
344 27 257
345 27 437
346 27 341
347 27 952
348 27 43
349 27 500
350 27 435
351 27 666
352 27 229
353 27 243
354 27 915
355 27 586
356 27 252
357 27 233
358 26 829
359 26 76
360 26 263
361 26 619
362 26 227
363 26 282
364 26 861
365 26 207
366 26 602
367 26 98
368 26 446
369 26 9
370 26 553
371 26 936
372 26 562
373 26 628
374 26 542
375 26 143
376 26 555
377 26 654
378 26 435
379 26 567
380 26 479
381 26 748
382 26 693
383 26 910
384 26 694
385 26 244
386 26 199
387 26 280
388 26 260
389 26 426
390 26 955
391 26 940
392 26 948
393 26 857
394 26 895
395 26 559
396 26 720
397 25 590
398 25 300
399 25 714
400 25 32
401 25 199
402 25 84
403 25 409
404 25 362
405 25 807
406 25 287
407 25 189
408 25 162
409 25 99
410 25 235
411 25 420
412 25 311
413 25 778
414 25 398
415 25 129
416 25 489
417 25 683
418 25 927
419 25 908
420 25 604
421 25 111
422 25 959
423 25 661
424 25 600
425 25 583
426 25 685
427 25 394
428 25 781
429 25 703
430 25 854
431 24 228
432 24 960
433 24 965
434 24 307
435 24 291
436 24 971
437 24 291
438 24 923
439 24 908
440 24 763
441 24 515
442 24 410
443 24 846
444 24 174
445 24 293
446 24 290
447 24 395
448 24 89
449 24 972
450 24 813
451 24 139
452 24 554
453 24 55
454 24 23
455 24 587
456 24 636
457 24 754
458 24 577
459 24 15
460 24 213
461 24 681
462 24 840
463 24 987
464 24 512
465 24 29
466 24 987
467 23 688
468 23 970
469 23 102
470 23 405
471 23 568
472 23 450
473 23 889
474 23 237
475 23 290
476 23 670
477 23 434
478 23 395
479 23 887
480 23 300
481 23 282
482 23 323
483 23 728
484 23 681
485 23 292
486 23 975
487 23 957
488 23 161
489 23 109
490 23 378
491 23 579
492 23 736
493 23 114
494 23 711
495 23 283
496 23 629
497 23 937
498 23 77
499 23 223
500 23 705
501 23 747
502 22 637
503 22 219
504 22 530
505 22 314
506 22 475
507 22 241
508 22 426
509 22 184
510 22 118
511 22 154
512 22 425
513 22 330
514 22 374
515 22 668
516 22 345
517 22 79
518 22 644
519 22 504
520 22 67
521 22 351
522 22 827
523 22 623
524 22 713
525 22 342
526 22 760
527 22 176
528 22 447
529 22 532
530 22 728
531 22 236
532 22 184
533 22 17
534 22 142
535 22 1
536 22 108
537 22 966
538 21 981
539 21 721
540 21 744
541 21 517
542 21 816
543 21 470
544 21 844
545 21 898
546 21 959
547 21 238
548 21 788
549 21 331
550 21 165
551 21 144
552 21 900
553 21 316
554 21 906
555 21 842
556 21 138
557 21 819
558 21 294
559 21 684
560 21 489
561 21 698
562 21 366
563 21 795
564 21 790
565 21 937
566 21 767
567 21 401
568 21 45
569 21 154
570 21 220
571 21 750
572 21 875
573 21 419
574 21 323
575 21 223
576 21 175
577 21 201
578 21 346
579 21 476
580 21 338
581 21 361
582 21 389
583 21 916
584 21 333
585 21 864
586 20 783
587 20 997
588 20 211
589 20 576
590 20 309
591 20 573
592 20 293
593 20 570
594 20 180
595 20 424
596 20 243
597 20 32
598 20 932
599 20 155
600 20 290
601 20 840
602 20 589
603 20 308
604 20 493
605 20 784
606 20 906
607 20 314
608 20 376
609 20 317
610 20 314
611 20 765
612 19 143
613 19 936
614 19 448
615 19 350
616 19 976
617 19 851
618 19 575
619 19 348
620 19 532
621 19 475
622 19 415
623 19 322
624 19 763
625 19 766
626 19 97
627 19 171
628 19 246
629 19 475
630 19 817
631 19 118
632 19 803
633 19 51
634 19 812
635 19 814
636 19 141
637 19 600
638 19 72
639 19 756
640 19 607
641 19 878
642 19 91
643 19 896
644 18 133
645 18 345
646 18 116
647 18 688
648 18 531
649 18 287
650 18 267
651 18 761
652 18 601
653 18 741
654 18 434
655 18 665
656 18 195
657 18 882
658 18 344
659 18 384
660 18 349
661 18 476
662 18 212
663 18 409
664 18 599
665 18 461
666 18 74
667 18 583
668 18 503
669 18 610
670 18 685
671 18 104
672 18 818
673 18 605
674 18 835
675 18 780
676 18 960
677 18 552
678 18 656
679 18 974
680 18 564
681 18 879
682 18 266
683 18 790
684 18 526
685 17 368
686 17 48
687 17 923
688 17 816
689 17 954
690 17 52
691 17 869
692 17 773
693 17 526
694 17 450
695 17 163
696 17 510
697 17 241
698 17 666
699 17 994
700 17 336
701 17 504
702 17 41
703 17 916
704 17 633
705 17 841
706 17 90
707 17 185
708 17 560
709 17 117
710 17 838
711 17 47
712 17 361
713 17 414
714 17 61
715 17 794
716 17 727
717 17 555
718 17 664
719 17 1
720 17 205
721 17 178
722 17 517
723 17 747
724 17 903
725 16 5
726 16 909
727 16 536
728 16 117
729 16 535
730 16 767
731 16 829
732 16 618
733 16 483
734 16 946
735 16 51
736 16 228
737 16 321
738 16 814
739 16 928
740 16 447
741 16 481
742 16 467
743 16 774
744 16 223
745 16 257
746 16 723
747 16 939
748 16 496
749 16 307
750 16 847
751 16 674
752 16 431
753 16 112
754 16 181
755 16 63
756 16 257
757 16 41
758 16 996
759 16 827
760 16 425
761 16 545
762 16 405
763 16 220
764 16 252
765 16 469
766 16 357
767 16 172
768 16 840
769 16 742
770 16 644
771 16 934
772 16 658
773 16 429
774 16 95
775 15 753
776 15 400
777 15 435
778 15 378
779 15 222
780 15 953
781 15 38
782 15 508
783 15 456
784 15 260
785 15 865
786 15 969
787 15 953
788 15 249
789 15 300
790 15 86
791 15 2
792 15 446
793 15 985
794 15 539
795 15 981
796 15 668
797 15 184
798 15 5
799 15 217
800 15 943
801 15 174
802 15 479
803 15 84
804 15 83
805 15 167
806 15 397
807 15 142
808 14 42
809 14 645
810 14 289
811 14 386
812 14 727
813 14 488
814 14 673
815 14 409
816 14 340
817 14 704
818 14 821
819 14 680
820 14 181
821 14 37
822 14 697
823 14 359
824 14 169
825 14 724
826 14 742
827 14 36
828 14 849
829 14 411
830 14 993
831 14 7
832 14 205
833 14 10
834 14 103
835 14 56
836 14 150
837 14 583
838 14 331
839 14 825
840 14 236
841 14 597
842 14 151
843 14 663
844 14 643
845 14 845
846 14 831
847 14 446
848 14 587
849 14 969
850 13 783
851 13 413
852 13 638
853 13 233
854 13 306
855 13 858
856 13 148
857 13 427
858 13 839
859 13 430
860 13 582
861 13 133
862 13 884
863 13 300
864 13 639
865 13 233
866 13 504
867 13 76
868 13 970
869 13 90
870 13 904
871 13 161
872 13 987
873 13 401
874 13 66
875 13 348
876 13 936
877 13 626
878 13 238
879 13 166
880 13 193
881 12 654
882 12 240
883 12 182
884 12 149
885 12 921
886 12 437
887 12 28
888 12 152
889 12 903
890 12 544
891 12 60
892 12 155
893 12 317
894 12 66
895 12 860
896 12 687
897 12 53
898 12 210
899 12 723
900 12 962
901 12 375
902 12 388
903 12 217
904 12 712
905 12 489
906 12 930
907 12 249
908 12 517
909 12 865
910 12 13
911 12 195
912 12 110
913 12 386
914 12 535
915 11 61
916 11 968
917 11 625
918 11 534
919 11 150
920 11 361
921 11 754
922 11 494
923 11 993
924 11 901
925 11 912
926 11 328
927 11 284
928 11 667
929 11 279
930 11 221
931 11 888
932 11 762
933 11 284
934 11 492
935 11 809
936 11 675
937 11 964
938 11 630
939 11 439
940 11 726
941 11 526
942 11 399
943 11 24
944 11 69
945 11 544
946 11 817
947 11 575
948 11 923
949 11 231
950 11 326
951 11 286
952 11 161
953 11 1
954 10 139
955 10 823
956 10 688
957 10 153
958 10 835
959 10 487
960 10 481
961 10 413
962 10 652
963 10 156
964 10 136
965 10 721
966 10 878
967 10 866
968 10 907
969 10 835
970 10 59
971 10 812
972 10 811
973 10 213
974 10 650
975 10 53
976 10 253
977 10 186
978 10 416
979 10 237
980 10 293
981 10 694
982 10 544
983 10 370
984 10 635
985 10 225
986 10 846
987 10 544
988 10 168
989 10 100
990 10 421
991 10 801
992 10 145
993 10 12
994 10 810
995 10 572
996 10 753
997 10 235
998 10 380
999 10 737
1000 10 672
