results/OOEBPP/BPP_1000_50_0.2_0.7_0.txt.ins.log
279,278.924,217.788,OPT,12857,0,0,AI,0,0.121864,2.81362,0.573716,214.484,0,2,0,171,170
